
Gurobi 10.0.1 (linux64, gurobi_cl) logging started Mon May 22 16:15:43 2023

Set parameter Username
Set parameter LogFile to value "gurobi.log"

Gurobi 10.0.1 (linux64, Python) logging started Mon May 22 16:19:54 2023

Set parameter Username
Set parameter LogFile to value "gurobi.log"

Gurobi 10.0.1 (linux64, gurobi_cl) logging started Mon May 22 16:28:06 2023

Set parameter Username
Set parameter LogFile to value "gurobi.log"
Academic license - for non-commercial use only - expires 2024-05-21
Using license file /home/apieruzzi/gurobi.lic

Gurobi 10.0.1 (linux64, gurobi_cl) logging started Mon May 22 16:44:14 2023

Set parameter Username
Set parameter LogFile to value "gurobi.log"
Academic license - for non-commercial use only - expires 2024-05-21
Using license file /home/apieruzzi/gurobi.lic

Gurobi 10.0.1 (linux64, gurobi_cl) logging started Tue May 23 09:41:52 2023

Set parameter Username
Set parameter LogFile to value "gurobi.log"

Gurobi 10.0.1 (linux64, Python) logging started Tue May 23 09:52:53 2023

Set parameter Username
Set parameter LogFile to value "gurobi.log"
Academic license - for non-commercial use only - expires 2024-05-22

Gurobi 10.0.1 (linux64, gurobi_cl) logging started Tue May 23 09:53:00 2023

Set parameter Username
Set parameter LogFile to value "gurobi.log"
Academic license - for non-commercial use only - expires 2024-05-22
Using license file /home/apieruzzi/gurobi.lic

Gurobi 10.0.1 (linux64, gurobi_cl) logging started Tue May 23 10:36:38 2023

Set parameter Username
Set parameter LogFile to value "gurobi.log"
Academic license - for non-commercial use only - expires 2024-05-22
Using license file /home/apieruzzi/gurobi.lic

Gurobi 10.0.1 (linux64, gurobi_cl) logging started Tue May 23 13:20:41 2023

Set parameter WLSAccessID
Set parameter WLSSecret
Set parameter LicenseID to value 2380096
Set parameter LogFile to value "gurobi.log"
Academic license - for non-commercial use only - registered to a.e.pieruzzi@student.tudelft.nl
Using license file /home/apieruzzi/gurobi.lic

Gurobi 10.0.1 (linux64, gurobi_cl) logging started Tue May 23 14:45:37 2023

Set parameter WLSAccessID
Set parameter WLSSecret
Set parameter LicenseID to value 2380096
Set parameter LogFile to value "gurobi.log"
Academic license - for non-commercial use only - registered to a.e.pieruzzi@student.tudelft.nl
Using license file /home/apieruzzi/gurobi.lic

Gurobi 10.0.1 (linux64, gurobi_cl) logging started Tue May 23 16:04:03 2023

Set parameter WLSAccessID
Set parameter WLSSecret
Set parameter LicenseID to value 2380096
Set parameter LogFile to value "gurobi.log"
Academic license - for non-commercial use only - registered to a.e.pieruzzi@student.tudelft.nl
Using license file /home/apieruzzi/gurobi.lic

Gurobi 10.0.1 (linux64, gurobi_cl) logging started Thu May 25 10:44:07 2023

Set parameter WLSAccessID
Set parameter WLSSecret
Set parameter LicenseID to value 2380096
Set parameter LogFile to value "gurobi.log"
Academic license - for non-commercial use only - registered to a.e.pieruzzi@student.tudelft.nl
Using license file /home/apieruzzi/gurobi.lic

Gurobi 10.0.1 (linux64, gurobi_cl) logging started Thu May 25 11:25:51 2023

Set parameter WLSAccessID
Set parameter WLSSecret
Set parameter LicenseID to value 2380096
Set parameter LogFile to value "gurobi.log"
Academic license - for non-commercial use only - registered to a.e.pieruzzi@student.tudelft.nl
Using license file /home/apieruzzi/gurobi.lic

Gurobi 10.0.1 (linux64, gurobi_cl) logging started Thu May 25 11:33:41 2023

Set parameter WLSAccessID
Set parameter WLSSecret
Set parameter LicenseID to value 2380096
Set parameter LogFile to value "gurobi.log"
Academic license - for non-commercial use only - registered to a.e.pieruzzi@student.tudelft.nl
Using license file /home/apieruzzi/gurobi.lic
